p cnf 496 1186
a 287 290 294 297 302 305 309 312 318 321 325 328 445 336 340 343 350 353 357 360 365 368 372 375 381 384 388 478 395 398 486 403 7 13 24 30 2 1 40 18 6 12 35 23 29 50 45 60 55 70 65 80 75 85 90 95 105 100 110 115 120 130 125 135 140 145 150 180 162 154 158 175 167 171 190 185 200 195 209 205 219 214 224 229 234 244 239 249 254 259 264 272 268 277 282 0
d 333 445 2 0
d 283 13 24 30 7 0
d 334 264 24 30 7 0
d 402 282 2 486 0
d 391 2 478 0
d 3 2 0
d 4 1 2 0
d 5 1 2 0
d 8 7 0
d 9 6 7 0
d 10 6 7 0
d 11 1 2 6 7 0
d 14 13 0
d 15 12 13 0
d 16 12 13 0
d 17 1 2 6 7 12 13 0
d 19 6 12 0
d 20 18 6 12 0
d 21 18 6 12 0
d 22 1 2 6 7 12 13 18 0
d 25 24 0
d 26 23 24 0
d 27 23 24 0
d 28 1 2 6 7 12 13 18 23 24 0
d 31 30 0
d 32 29 30 0
d 33 29 30 0
d 34 1 2 6 7 12 13 18 23 24 29 30 0
d 36 23 29 0
d 37 35 23 29 0
d 38 35 23 29 0
d 39 1 2 6 7 12 13 18 23 24 29 30 35 0
d 41 18 35 0
d 42 40 18 35 0
d 43 40 18 35 0
d 44 1 2 6 7 12 13 18 23 24 29 30 35 40 0
d 46 7 12 0
d 47 45 7 12 0
d 48 45 7 12 0
d 49 1 2 6 7 12 13 18 23 24 29 30 35 40 45 0
d 51 45 35 0
d 52 50 45 35 0
d 53 50 45 35 0
d 54 1 2 6 7 12 13 18 23 24 29 30 35 40 45 50 0
d 56 6 13 0
d 57 55 6 13 0
d 58 55 6 13 0
d 59 1 2 6 7 12 13 18 23 24 29 30 35 40 45 50 55 0
d 61 55 35 0
d 62 60 55 35 0
d 63 60 55 35 0
d 64 1 2 6 7 12 13 18 23 24 29 30 35 40 45 50 55 60 0
d 66 7 13 0
d 67 65 7 13 0
d 68 65 7 13 0
d 69 1 2 6 7 12 13 18 23 24 29 30 35 40 45 50 55 60 65 0
d 71 65 35 0
d 72 70 65 35 0
d 73 70 65 35 0
d 74 1 2 6 7 12 13 18 23 24 29 30 35 40 45 50 55 60 65 70 0
d 76 24 29 0
d 77 75 24 29 0
d 78 75 24 29 0
d 79 1 2 6 7 12 13 18 23 24 29 30 35 40 45 50 55 60 65 70 75 0
d 81 18 75 0
d 82 80 18 75 0
d 83 80 18 75 0
d 84 1 2 6 7 12 13 18 23 24 29 30 35 40 45 50 55 60 65 70 75 80 0
d 86 45 75 0
d 87 85 45 75 0
d 88 85 45 75 0
d 89 1 2 6 7 12 13 18 23 24 29 30 35 40 45 50 55 60 65 70 75 80 85 0
d 91 55 75 0
d 92 90 55 75 0
d 93 90 55 75 0
d 94 1 2 6 7 12 13 18 23 24 29 30 35 40 45 50 55 60 65 70 75 80 85 90 0
d 96 65 75 0
d 97 95 65 75 0
d 98 95 65 75 0
d 99 1 2 6 7 12 13 18 23 24 29 30 35 40 45 50 55 60 65 70 75 80 85 90 95 0
d 101 23 30 0
d 102 100 23 30 0
d 103 100 23 30 0
d 104 1 2 6 7 12 13 18 23 24 29 30 35 40 45 50 55 60 65 70 75 80 85 90 95 100 0
d 106 18 100 0
d 107 105 18 100 0
d 108 105 18 100 0
d 109 1 2 6 7 12 13 18 23 24 29 30 35 40 45 50 55 60 65 70 75 80 85 90 95 100 105 0
d 111 45 100 0
d 112 110 45 100 0
d 113 110 45 100 0
d 114 1 2 6 7 12 13 18 23 24 29 30 35 40 45 50 55 60 65 70 75 80 85 90 95 100 105 110 0
d 116 55 100 0
d 117 115 55 100 0
d 118 115 55 100 0
d 119 1 2 6 7 12 13 18 23 24 29 30 35 40 45 50 55 60 65 70 75 80 85 90 95 100 105 110 115 0
d 121 65 100 0
d 122 120 65 100 0
d 123 120 65 100 0
d 124 1 2 6 7 12 13 18 23 24 29 30 35 40 45 50 55 60 65 70 75 80 85 90 95 100 105 110 115 120 0
d 126 24 30 0
d 127 125 24 30 0
d 128 125 24 30 0
d 129 1 2 6 7 12 13 18 23 24 29 30 35 40 45 50 55 60 65 70 75 80 85 90 95 100 105 110 115 120 125 0
d 131 18 125 0
d 132 130 18 125 0
d 133 130 18 125 0
d 134 1 2 6 7 12 13 18 23 24 29 30 35 40 45 50 55 60 65 70 75 80 85 90 95 100 105 110 115 120 125 130 0
d 136 45 125 0
d 137 135 45 125 0
d 138 135 45 125 0
d 139 1 2 6 7 12 13 18 23 24 29 30 35 40 45 50 55 60 65 70 75 80 85 90 95 100 105 110 115 120 125 130 135 0
d 141 55 125 0
d 142 140 55 125 0
d 143 140 55 125 0
d 144 1 2 6 7 12 13 18 23 24 29 30 35 40 45 50 55 60 65 70 75 80 85 90 95 100 105 110 115 120 125 130 135 140 0
d 146 65 125 0
d 147 145 65 125 0
d 148 145 65 125 0
d 149 1 2 6 7 12 13 18 23 24 29 30 35 40 45 50 55 60 65 70 75 80 85 90 95 100 105 110 115 120 125 130 135 140 145 0
d 151 150 2 0
d 152 150 2 0
d 153 1 2 6 7 12 13 18 23 24 29 30 35 40 45 50 55 60 65 70 75 80 85 90 95 100 105 110 115 120 125 130 135 140 145 150 0
d 155 154 7 0
d 156 154 7 0
d 157 1 2 6 7 12 13 18 23 24 29 30 35 40 45 50 55 60 65 70 75 80 85 90 95 100 105 110 115 120 125 130 135 140 145 150 154 0
d 159 158 13 0
d 160 158 13 0
d 161 1 2 6 7 12 13 18 23 24 29 30 35 40 45 50 55 60 65 70 75 80 85 90 95 100 105 110 115 120 125 130 135 140 145 150 154 158 0
d 163 154 158 0
d 164 162 154 158 0
d 165 162 154 158 0
d 166 1 2 6 7 12 13 18 23 24 29 30 35 40 45 50 55 60 65 70 75 80 85 90 95 100 105 110 115 120 125 130 135 140 145 150 154 158 162 0
d 168 167 24 0
d 169 167 24 0
d 170 1 2 6 7 12 13 18 23 24 29 30 35 40 45 50 55 60 65 70 75 80 85 90 95 100 105 110 115 120 125 130 135 140 145 150 154 158 162 167 0
d 172 171 30 0
d 173 171 30 0
d 174 1 2 6 7 12 13 18 23 24 29 30 35 40 45 50 55 60 65 70 75 80 85 90 95 100 105 110 115 120 125 130 135 140 145 150 154 158 162 167 171 0
d 176 167 171 0
d 177 175 167 171 0
d 178 175 167 171 0
d 179 1 2 6 7 12 13 18 23 24 29 30 35 40 45 50 55 60 65 70 75 80 85 90 95 100 105 110 115 120 125 130 135 140 145 150 154 158 162 167 171 175 0
d 181 162 175 0
d 182 180 162 175 0
d 183 180 162 175 0
d 184 1 2 6 7 12 13 18 23 24 29 30 35 40 45 50 55 60 65 70 75 80 85 90 95 100 105 110 115 120 125 130 135 140 145 150 154 158 162 167 171 175 180 0
d 186 7 158 0
d 187 185 7 158 0
d 188 185 7 158 0
d 189 1 2 6 7 12 13 18 23 24 29 30 35 40 45 50 55 60 65 70 75 80 85 90 95 100 105 110 115 120 125 130 135 140 145 150 154 158 162 167 171 175 180 185 0
d 191 185 175 0
d 192 190 185 175 0
d 193 190 185 175 0
d 194 1 2 6 7 12 13 18 23 24 29 30 35 40 45 50 55 60 65 70 75 80 85 90 95 100 105 110 115 120 125 130 135 140 145 150 154 158 162 167 171 175 180 185 190 0
d 196 154 13 0
d 197 195 154 13 0
d 198 195 154 13 0
d 199 1 2 6 7 12 13 18 23 24 29 30 35 40 45 50 55 60 65 70 75 80 85 90 95 100 105 110 115 120 125 130 135 140 145 150 154 158 162 167 171 175 180 185 190 195 0
d 201 195 175 0
d 202 200 195 175 0
d 203 200 195 175 0
d 204 1 2 6 7 12 13 18 23 24 29 30 35 40 45 50 55 60 65 70 75 80 85 90 95 100 105 110 115 120 125 130 135 140 145 150 154 158 162 167 171 175 180 185 190 195 200 0
d 206 205 7 13 0
d 207 205 7 13 0
d 208 1 2 6 7 12 13 18 23 24 29 30 35 40 45 50 55 60 65 70 75 80 85 90 95 100 105 110 115 120 125 130 135 140 145 150 154 158 162 167 171 175 180 185 190 195 200 205 0
d 210 205 175 0
d 211 209 205 175 0
d 212 209 205 175 0
d 213 1 2 6 7 12 13 18 23 24 29 30 35 40 45 50 55 60 65 70 75 80 85 90 95 100 105 110 115 120 125 130 135 140 145 150 154 158 162 167 171 175 180 185 190 195 200 205 209 0
d 215 24 171 0
d 216 214 24 171 0
d 217 214 24 171 0
d 218 1 2 6 7 12 13 18 23 24 29 30 35 40 45 50 55 60 65 70 75 80 85 90 95 100 105 110 115 120 125 130 135 140 145 150 154 158 162 167 171 175 180 185 190 195 200 205 209 214 0
d 220 162 214 0
d 221 219 162 214 0
d 222 219 162 214 0
d 223 1 2 6 7 12 13 18 23 24 29 30 35 40 45 50 55 60 65 70 75 80 85 90 95 100 105 110 115 120 125 130 135 140 145 150 154 158 162 167 171 175 180 185 190 195 200 205 209 214 219 0
d 225 185 214 0
d 226 224 185 214 0
d 227 224 185 214 0
d 228 1 2 6 7 12 13 18 23 24 29 30 35 40 45 50 55 60 65 70 75 80 85 90 95 100 105 110 115 120 125 130 135 140 145 150 154 158 162 167 171 175 180 185 190 195 200 205 209 214 219 224 0
d 230 195 214 0
d 231 229 195 214 0
d 232 229 195 214 0
d 233 1 2 6 7 12 13 18 23 24 29 30 35 40 45 50 55 60 65 70 75 80 85 90 95 100 105 110 115 120 125 130 135 140 145 150 154 158 162 167 171 175 180 185 190 195 200 205 209 214 219 224 229 0
d 235 205 214 0
d 236 234 205 214 0
d 237 234 205 214 0
d 238 1 2 6 7 12 13 18 23 24 29 30 35 40 45 50 55 60 65 70 75 80 85 90 95 100 105 110 115 120 125 130 135 140 145 150 154 158 162 167 171 175 180 185 190 195 200 205 209 214 219 224 229 234 0
d 240 167 30 0
d 241 239 167 30 0
d 242 239 167 30 0
d 243 1 2 6 7 12 13 18 23 24 29 30 35 40 45 50 55 60 65 70 75 80 85 90 95 100 105 110 115 120 125 130 135 140 145 150 154 158 162 167 171 175 180 185 190 195 200 205 209 214 219 224 229 234 239 0
d 245 162 239 0
d 246 244 162 239 0
d 247 244 162 239 0
d 248 1 2 6 7 12 13 18 23 24 29 30 35 40 45 50 55 60 65 70 75 80 85 90 95 100 105 110 115 120 125 130 135 140 145 150 154 158 162 167 171 175 180 185 190 195 200 205 209 214 219 224 229 234 239 244 0
d 250 185 239 0
d 251 249 185 239 0
d 252 249 185 239 0
d 253 1 2 6 7 12 13 18 23 24 29 30 35 40 45 50 55 60 65 70 75 80 85 90 95 100 105 110 115 120 125 130 135 140 145 150 154 158 162 167 171 175 180 185 190 195 200 205 209 214 219 224 229 234 239 244 249 0
d 255 195 239 0
d 256 254 195 239 0
d 257 254 195 239 0
d 258 1 2 6 7 12 13 18 23 24 29 30 35 40 45 50 55 60 65 70 75 80 85 90 95 100 105 110 115 120 125 130 135 140 145 150 154 158 162 167 171 175 180 185 190 195 200 205 209 214 219 224 229 234 239 244 249 254 0
d 260 205 239 0
d 261 259 205 239 0
d 262 259 205 239 0
d 263 1 2 6 7 12 13 18 23 24 29 30 35 40 45 50 55 60 65 70 75 80 85 90 95 100 105 110 115 120 125 130 135 140 145 150 154 158 162 167 171 175 180 185 190 195 200 205 209 214 219 224 229 234 239 244 249 254 259 0
d 265 264 158 0
d 266 264 158 0
d 267 1 2 6 7 12 13 18 23 24 29 30 35 40 45 50 55 60 65 70 75 80 85 90 95 100 105 110 115 120 125 130 135 140 145 150 154 158 162 167 171 175 180 185 190 195 200 205 209 214 219 224 229 234 239 244 249 254 259 264 0
d 269 268 24 30 0
d 270 268 24 30 0
d 271 1 2 6 7 12 13 18 23 24 29 30 35 40 45 50 55 60 65 70 75 80 85 90 95 100 105 110 115 120 125 130 135 140 145 150 154 158 162 167 171 175 180 185 190 195 200 205 209 214 219 224 229 234 239 244 249 254 259 264 268 0
d 273 185 268 0
d 274 272 185 268 0
d 275 272 185 268 0
d 276 1 2 6 7 12 13 18 23 24 29 30 35 40 45 50 55 60 65 70 75 80 85 90 95 100 105 110 115 120 125 130 135 140 145 150 154 158 162 167 171 175 180 185 190 195 200 205 209 214 219 224 229 234 239 244 249 254 259 264 268 272 0
d 278 205 268 0
d 279 277 205 268 0
d 280 277 205 268 0
d 281 1 2 6 7 12 13 18 23 24 29 30 35 40 45 50 55 60 65 70 75 80 85 90 95 100 105 110 115 120 125 130 135 140 145 150 154 158 162 167 171 175 180 185 190 195 200 205 209 214 219 224 229 234 239 244 249 254 259 264 268 272 277 0
d 284 282 13 24 30 7 0
d 285 282 13 24 30 7 0
d 286 1 2 6 7 12 13 18 23 24 29 30 35 40 45 50 55 60 65 70 75 80 85 90 95 100 105 110 115 120 125 130 135 140 145 150 154 158 162 167 171 175 180 185 190 195 200 205 209 214 219 224 229 234 239 244 249 254 259 264 268 272 277 282 0
d 288 150 287 0
d 289 150 287 180 0
d 291 150 290 0
d 292 150 290 190 0
d 293 150 287 180 290 190 0
d 295 150 294 0
d 296 150 294 200 0
d 298 150 297 0
d 299 150 297 209 0
d 300 150 294 200 297 209 0
d 301 150 287 180 290 190 294 200 297 209 0
d 303 150 302 0
d 304 150 302 219 0
d 306 150 305 0
d 307 150 305 224 0
d 308 150 302 219 305 224 0
d 310 150 309 0
d 311 150 309 229 0
d 313 150 312 0
d 314 150 312 234 0
d 315 150 309 229 312 234 0
d 316 150 302 219 305 224 309 229 312 234 0
d 317 150 287 180 290 190 294 200 297 209 302 219 305 224 309 229 312 234 0
d 319 150 318 0
d 320 150 318 244 0
d 322 150 321 0
d 323 150 321 249 0
d 324 150 318 244 321 249 0
d 326 150 325 0
d 327 150 325 254 0
d 329 150 328 0
d 330 150 328 259 0
d 331 150 325 254 328 259 0
d 332 150 318 244 321 249 325 254 328 259 0
d 335 445 2 264 24 30 7 0
d 337 150 336 0
d 338 150 336 272 0
d 339 445 2 264 24 30 7 150 336 272 0
d 341 150 340 0
d 342 150 340 13 24 30 7 0
d 344 150 343 0
d 345 150 343 277 0
d 346 150 340 13 24 30 7 343 277 0
d 347 445 2 264 24 30 7 150 336 272 340 13 343 277 0
d 348 150 318 244 321 249 325 254 328 259 445 2 264 24 30 7 336 272 340 13 343 277 0
d 349 150 287 180 290 190 294 200 297 209 302 219 305 224 309 229 312 234 318 244 321 249 325 254 328 259 445 2 264 24 30 7 336 272 340 13 343 277 0
d 351 2 350 0
d 352 2 350 180 0
d 354 2 353 0
d 355 2 353 190 0
d 356 2 350 180 353 190 0
d 358 2 357 0
d 359 2 357 200 0
d 361 2 360 0
d 362 2 360 209 0
d 363 2 357 200 360 209 0
d 364 2 350 180 353 190 357 200 360 209 0
d 366 2 365 0
d 367 2 365 219 0
d 369 2 368 0
d 370 2 368 224 0
d 371 2 365 219 368 224 0
d 373 2 372 0
d 374 2 372 229 0
d 376 2 375 0
d 377 2 375 234 0
d 378 2 372 229 375 234 0
d 379 2 365 219 368 224 372 229 375 234 0
d 380 2 350 180 353 190 357 200 360 209 365 219 368 224 372 229 375 234 0
d 382 2 381 0
d 383 2 381 244 0
d 385 2 384 0
d 386 2 384 249 0
d 387 2 381 244 384 249 0
d 389 2 388 0
d 390 2 388 254 0
d 392 2 478 259 0
d 393 2 388 254 478 259 0
d 394 2 381 244 384 249 388 254 478 259 0
d 396 2 395 0
d 397 2 395 264 24 30 7 0
d 399 2 398 0
d 400 2 398 272 0
d 401 2 395 264 24 30 7 398 272 0
d 404 2 403 0
d 405 2 403 277 0
d 406 282 2 486 403 277 0
d 407 2 395 264 24 30 7 398 272 282 486 403 277 0
d 408 2 381 244 384 249 388 254 478 259 395 264 24 30 7 398 272 282 486 403 277 0
d 409 2 350 180 353 190 357 200 360 209 365 219 368 224 372 229 375 234 381 244 384 249 388 254 478 259 395 264 24 30 7 398 272 282 486 403 277 0
d 410 150 287 180 290 190 294 200 297 209 302 219 305 224 309 229 312 234 318 244 321 249 325 254 328 259 445 2 264 24 30 7 336 272 340 13 343 277 350 353 357 360 365 368 372 375 381 384 388 478 395 398 282 486 403 0
d 411 1 287 0
d 412 1 287 40 0
d 413 1 290 0
d 414 1 290 50 0
d 415 1 287 40 290 50 0
d 416 1 294 0
d 417 1 294 60 0
d 418 1 297 0
d 419 1 297 70 0
d 420 1 294 60 297 70 0
d 421 1 287 40 290 50 294 60 297 70 0
d 422 1 302 0
d 423 1 302 80 0
d 424 1 305 0
d 425 1 305 85 0
d 426 1 302 80 305 85 0
d 427 1 309 0
d 428 1 309 90 0
d 429 1 312 0
d 430 1 312 95 0
d 431 1 309 90 312 95 0
d 432 1 302 80 305 85 309 90 312 95 0
d 433 1 287 40 290 50 294 60 297 70 302 80 305 85 309 90 312 95 0
d 434 1 318 0
d 435 1 318 105 0
d 436 1 321 0
d 437 1 321 110 0
d 438 1 318 105 321 110 0
d 439 1 325 0
d 440 1 325 115 0
d 441 1 328 0
d 442 1 328 120 0
d 443 1 325 115 328 120 0
d 444 1 318 105 321 110 325 115 328 120 0
d 446 1 445 0
d 447 1 445 130 0
d 448 1 336 0
d 449 1 336 135 0
d 450 1 445 130 336 135 0
d 451 1 340 0
d 452 1 340 140 0
d 453 1 343 0
d 454 1 343 145 0
d 455 1 340 140 343 145 0
d 456 1 445 130 336 135 340 140 343 145 0
d 457 1 318 105 321 110 325 115 328 120 445 130 336 135 340 140 343 145 0
d 458 1 287 40 290 50 294 60 297 70 302 80 305 85 309 90 312 95 318 105 321 110 325 115 328 120 445 130 336 135 340 140 343 145 0
d 459 2 350 40 0
d 460 2 353 50 0
d 461 2 350 40 353 50 0
d 462 2 357 60 0
d 463 2 360 70 0
d 464 2 357 60 360 70 0
d 465 2 350 40 353 50 357 60 360 70 0
d 466 2 365 80 0
d 467 2 368 85 0
d 468 2 365 80 368 85 0
d 469 2 372 90 0
d 470 2 375 95 0
d 471 2 372 90 375 95 0
d 472 2 365 80 368 85 372 90 375 95 0
d 473 2 350 40 353 50 357 60 360 70 365 80 368 85 372 90 375 95 0
d 474 2 381 105 0
d 475 2 384 110 0
d 476 2 381 105 384 110 0
d 477 2 388 115 0
d 479 2 478 0
d 480 2 478 120 0
d 481 2 388 115 478 120 0
d 482 2 381 105 384 110 388 115 478 120 0
d 483 2 395 130 0
d 484 2 398 135 0
d 485 2 395 130 398 135 0
d 487 2 486 0
d 488 2 486 140 0
d 489 2 403 145 0
d 490 2 486 140 403 145 0
d 491 2 395 130 398 135 486 140 403 145 0
d 492 2 381 105 384 110 388 115 478 120 395 130 398 135 486 140 403 145 0
d 493 2 350 40 353 50 357 60 360 70 365 80 368 85 372 90 375 95 381 105 384 110 388 115 478 120 395 130 398 135 486 140 403 145 0
d 494 1 287 40 290 50 294 60 297 70 302 80 305 85 309 90 312 95 318 105 321 110 325 115 328 120 445 130 336 135 340 140 343 145 2 350 353 357 360 365 368 372 375 381 384 388 478 395 398 486 403 0
d 495 150 287 180 290 190 294 200 297 209 302 219 305 224 309 229 312 234 318 244 321 249 325 254 328 259 445 2 264 24 30 7 336 272 340 13 343 277 350 353 357 360 365 368 372 375 381 384 388 478 395 398 282 486 403 1 40 50 60 70 80 85 90 95 105 110 115 120 130 135 140 145 0
d 496 1 2 6 7 12 13 18 23 24 29 30 35 40 45 50 55 60 65 70 75 80 85 90 95 100 105 110 115 120 125 130 135 140 145 150 154 158 162 167 171 175 180 185 190 195 200 205 209 214 219 224 229 234 239 244 249 254 259 264 268 272 277 282 287 290 294 297 302 305 309 312 318 321 325 328 445 336 340 343 350 353 357 360 365 368 372 375 381 384 388 478 395 398 486 403 0
3 2 0
-3 -2 0
4 -1 -3 0
4 1 3 0
-4 -1 3 0
-4 1 -3 0
5 4 0
-5 -4 0
8 7 0
-8 -7 0
9 -6 -8 0
9 6 8 0
-9 -6 8 0
-9 6 -8 0
10 9 0
-10 -9 0
11 -5 0
11 -10 0
-11 5 10 0
14 13 0
-14 -13 0
15 -12 -14 0
15 12 14 0
-15 -12 14 0
-15 12 -14 0
16 15 0
-16 -15 0
17 -11 0
17 -16 0
-17 11 16 0
-19 6 0
-19 12 0
19 -6 -12 0
20 -18 -19 0
20 18 19 0
-20 -18 19 0
-20 18 -19 0
21 20 0
-21 -20 0
22 -17 0
22 -21 0
-22 17 21 0
25 24 0
-25 -24 0
26 -23 -25 0
26 23 25 0
-26 -23 25 0
-26 23 -25 0
27 26 0
-27 -26 0
28 -22 0
28 -27 0
-28 22 27 0
31 30 0
-31 -30 0
32 -29 -31 0
32 29 31 0
-32 -29 31 0
-32 29 -31 0
33 32 0
-33 -32 0
34 -28 0
34 -33 0
-34 28 33 0
-36 23 0
-36 29 0
36 -23 -29 0
37 -35 -36 0
37 35 36 0
-37 -35 36 0
-37 35 -36 0
38 37 0
-38 -37 0
39 -34 0
39 -38 0
-39 34 38 0
-41 18 0
-41 35 0
41 -18 -35 0
42 -40 -41 0
42 40 41 0
-42 -40 41 0
-42 40 -41 0
43 42 0
-43 -42 0
44 -39 0
44 -43 0
-44 39 43 0
-46 7 0
-46 12 0
46 -7 -12 0
47 -45 -46 0
47 45 46 0
-47 -45 46 0
-47 45 -46 0
48 47 0
-48 -47 0
49 -44 0
49 -48 0
-49 44 48 0
-51 45 0
-51 35 0
51 -45 -35 0
52 -50 -51 0
52 50 51 0
-52 -50 51 0
-52 50 -51 0
53 52 0
-53 -52 0
54 -49 0
54 -53 0
-54 49 53 0
-56 6 0
-56 13 0
56 -6 -13 0
57 -55 -56 0
57 55 56 0
-57 -55 56 0
-57 55 -56 0
58 57 0
-58 -57 0
59 -54 0
59 -58 0
-59 54 58 0
-61 55 0
-61 35 0
61 -55 -35 0
62 -60 -61 0
62 60 61 0
-62 -60 61 0
-62 60 -61 0
63 62 0
-63 -62 0
64 -59 0
64 -63 0
-64 59 63 0
-66 7 0
-66 13 0
66 -7 -13 0
67 -65 -66 0
67 65 66 0
-67 -65 66 0
-67 65 -66 0
68 67 0
-68 -67 0
69 -64 0
69 -68 0
-69 64 68 0
-71 65 0
-71 35 0
71 -65 -35 0
72 -70 -71 0
72 70 71 0
-72 -70 71 0
-72 70 -71 0
73 72 0
-73 -72 0
74 -69 0
74 -73 0
-74 69 73 0
-76 24 0
-76 29 0
76 -24 -29 0
77 -75 -76 0
77 75 76 0
-77 -75 76 0
-77 75 -76 0
78 77 0
-78 -77 0
79 -74 0
79 -78 0
-79 74 78 0
-81 18 0
-81 75 0
81 -18 -75 0
82 -80 -81 0
82 80 81 0
-82 -80 81 0
-82 80 -81 0
83 82 0
-83 -82 0
84 -79 0
84 -83 0
-84 79 83 0
-86 45 0
-86 75 0
86 -45 -75 0
87 -85 -86 0
87 85 86 0
-87 -85 86 0
-87 85 -86 0
88 87 0
-88 -87 0
89 -84 0
89 -88 0
-89 84 88 0
-91 55 0
-91 75 0
91 -55 -75 0
92 -90 -91 0
92 90 91 0
-92 -90 91 0
-92 90 -91 0
93 92 0
-93 -92 0
94 -89 0
94 -93 0
-94 89 93 0
-96 65 0
-96 75 0
96 -65 -75 0
97 -95 -96 0
97 95 96 0
-97 -95 96 0
-97 95 -96 0
98 97 0
-98 -97 0
99 -94 0
99 -98 0
-99 94 98 0
-101 23 0
-101 30 0
101 -23 -30 0
102 -100 -101 0
102 100 101 0
-102 -100 101 0
-102 100 -101 0
103 102 0
-103 -102 0
104 -99 0
104 -103 0
-104 99 103 0
-106 18 0
-106 100 0
106 -18 -100 0
107 -105 -106 0
107 105 106 0
-107 -105 106 0
-107 105 -106 0
108 107 0
-108 -107 0
109 -104 0
109 -108 0
-109 104 108 0
-111 45 0
-111 100 0
111 -45 -100 0
112 -110 -111 0
112 110 111 0
-112 -110 111 0
-112 110 -111 0
113 112 0
-113 -112 0
114 -109 0
114 -113 0
-114 109 113 0
-116 55 0
-116 100 0
116 -55 -100 0
117 -115 -116 0
117 115 116 0
-117 -115 116 0
-117 115 -116 0
118 117 0
-118 -117 0
119 -114 0
119 -118 0
-119 114 118 0
-121 65 0
-121 100 0
121 -65 -100 0
122 -120 -121 0
122 120 121 0
-122 -120 121 0
-122 120 -121 0
123 122 0
-123 -122 0
124 -119 0
124 -123 0
-124 119 123 0
-126 24 0
-126 30 0
126 -24 -30 0
127 -125 -126 0
127 125 126 0
-127 -125 126 0
-127 125 -126 0
128 127 0
-128 -127 0
129 -124 0
129 -128 0
-129 124 128 0
-131 18 0
-131 125 0
131 -18 -125 0
132 -130 -131 0
132 130 131 0
-132 -130 131 0
-132 130 -131 0
133 132 0
-133 -132 0
134 -129 0
134 -133 0
-134 129 133 0
-136 45 0
-136 125 0
136 -45 -125 0
137 -135 -136 0
137 135 136 0
-137 -135 136 0
-137 135 -136 0
138 137 0
-138 -137 0
139 -134 0
139 -138 0
-139 134 138 0
-141 55 0
-141 125 0
141 -55 -125 0
142 -140 -141 0
142 140 141 0
-142 -140 141 0
-142 140 -141 0
143 142 0
-143 -142 0
144 -139 0
144 -143 0
-144 139 143 0
-146 65 0
-146 125 0
146 -65 -125 0
147 -145 -146 0
147 145 146 0
-147 -145 146 0
-147 145 -146 0
148 147 0
-148 -147 0
149 -144 0
149 -148 0
-149 144 148 0
151 -150 -3 0
151 150 3 0
-151 -150 3 0
-151 150 -3 0
152 151 0
-152 -151 0
153 -149 0
153 -152 0
-153 149 152 0
155 -154 -8 0
155 154 8 0
-155 -154 8 0
-155 154 -8 0
156 155 0
-156 -155 0
157 -153 0
157 -156 0
-157 153 156 0
159 -158 -14 0
159 158 14 0
-159 -158 14 0
-159 158 -14 0
160 159 0
-160 -159 0
161 -157 0
161 -160 0
-161 157 160 0
-163 154 0
-163 158 0
163 -154 -158 0
164 -162 -163 0
164 162 163 0
-164 -162 163 0
-164 162 -163 0
165 164 0
-165 -164 0
166 -161 0
166 -165 0
-166 161 165 0
168 -167 -25 0
168 167 25 0
-168 -167 25 0
-168 167 -25 0
169 168 0
-169 -168 0
170 -166 0
170 -169 0
-170 166 169 0
172 -171 -31 0
172 171 31 0
-172 -171 31 0
-172 171 -31 0
173 172 0
-173 -172 0
174 -170 0
174 -173 0
-174 170 173 0
-176 167 0
-176 171 0
176 -167 -171 0
177 -175 -176 0
177 175 176 0
-177 -175 176 0
-177 175 -176 0
178 177 0
-178 -177 0
179 -174 0
179 -178 0
-179 174 178 0
-181 162 0
-181 175 0
181 -162 -175 0
182 -180 -181 0
182 180 181 0
-182 -180 181 0
-182 180 -181 0
183 182 0
-183 -182 0
184 -179 0
184 -183 0
-184 179 183 0
-186 7 0
-186 158 0
186 -7 -158 0
187 -185 -186 0
187 185 186 0
-187 -185 186 0
-187 185 -186 0
188 187 0
-188 -187 0
189 -184 0
189 -188 0
-189 184 188 0
-191 185 0
-191 175 0
191 -185 -175 0
192 -190 -191 0
192 190 191 0
-192 -190 191 0
-192 190 -191 0
193 192 0
-193 -192 0
194 -189 0
194 -193 0
-194 189 193 0
-196 154 0
-196 13 0
196 -154 -13 0
197 -195 -196 0
197 195 196 0
-197 -195 196 0
-197 195 -196 0
198 197 0
-198 -197 0
199 -194 0
199 -198 0
-199 194 198 0
-201 195 0
-201 175 0
201 -195 -175 0
202 -200 -201 0
202 200 201 0
-202 -200 201 0
-202 200 -201 0
203 202 0
-203 -202 0
204 -199 0
204 -203 0
-204 199 203 0
206 -205 -66 0
206 205 66 0
-206 -205 66 0
-206 205 -66 0
207 206 0
-207 -206 0
208 -204 0
208 -207 0
-208 204 207 0
-210 205 0
-210 175 0
210 -205 -175 0
211 -209 -210 0
211 209 210 0
-211 -209 210 0
-211 209 -210 0
212 211 0
-212 -211 0
213 -208 0
213 -212 0
-213 208 212 0
-215 24 0
-215 171 0
215 -24 -171 0
216 -214 -215 0
216 214 215 0
-216 -214 215 0
-216 214 -215 0
217 216 0
-217 -216 0
218 -213 0
218 -217 0
-218 213 217 0
-220 162 0
-220 214 0
220 -162 -214 0
221 -219 -220 0
221 219 220 0
-221 -219 220 0
-221 219 -220 0
222 221 0
-222 -221 0
223 -218 0
223 -222 0
-223 218 222 0
-225 185 0
-225 214 0
225 -185 -214 0
226 -224 -225 0
226 224 225 0
-226 -224 225 0
-226 224 -225 0
227 226 0
-227 -226 0
228 -223 0
228 -227 0
-228 223 227 0
-230 195 0
-230 214 0
230 -195 -214 0
231 -229 -230 0
231 229 230 0
-231 -229 230 0
-231 229 -230 0
232 231 0
-232 -231 0
233 -228 0
233 -232 0
-233 228 232 0
-235 205 0
-235 214 0
235 -205 -214 0
236 -234 -235 0
236 234 235 0
-236 -234 235 0
-236 234 -235 0
237 236 0
-237 -236 0
238 -233 0
238 -237 0
-238 233 237 0
-240 167 0
-240 30 0
240 -167 -30 0
241 -239 -240 0
241 239 240 0
-241 -239 240 0
-241 239 -240 0
242 241 0
-242 -241 0
243 -238 0
243 -242 0
-243 238 242 0
-245 162 0
-245 239 0
245 -162 -239 0
246 -244 -245 0
246 244 245 0
-246 -244 245 0
-246 244 -245 0
247 246 0
-247 -246 0
248 -243 0
248 -247 0
-248 243 247 0
-250 185 0
-250 239 0
250 -185 -239 0
251 -249 -250 0
251 249 250 0
-251 -249 250 0
-251 249 -250 0
252 251 0
-252 -251 0
253 -248 0
253 -252 0
-253 248 252 0
-255 195 0
-255 239 0
255 -195 -239 0
256 -254 -255 0
256 254 255 0
-256 -254 255 0
-256 254 -255 0
257 256 0
-257 -256 0
258 -253 0
258 -257 0
-258 253 257 0
-260 205 0
-260 239 0
260 -205 -239 0
261 -259 -260 0
261 259 260 0
-261 -259 260 0
-261 259 -260 0
262 261 0
-262 -261 0
263 -258 0
263 -262 0
-263 258 262 0
265 -264 -158 0
265 264 158 0
-265 -264 158 0
-265 264 -158 0
266 265 0
-266 -265 0
267 -263 0
267 -266 0
-267 263 266 0
269 -268 -126 0
269 268 126 0
-269 -268 126 0
-269 268 -126 0
270 269 0
-270 -269 0
271 -267 0
271 -270 0
-271 267 270 0
-273 185 0
-273 268 0
273 -185 -268 0
274 -272 -273 0
274 272 273 0
-274 -272 273 0
-274 272 -273 0
275 274 0
-275 -274 0
276 -271 0
276 -275 0
-276 271 275 0
-278 205 0
-278 268 0
278 -205 -268 0
279 -277 -278 0
279 277 278 0
-279 -277 278 0
-279 277 -278 0
280 279 0
-280 -279 0
281 -276 0
281 -280 0
-281 276 280 0
284 -282 -283 0
284 282 283 0
-284 -282 283 0
-284 282 -283 0
285 284 0
-285 -284 0
286 -281 0
286 -285 0
-286 281 285 0
-288 150 0
-288 287 0
288 -150 -287 0
-289 288 0
-289 180 0
289 -288 -180 0
-291 150 0
-291 290 0
291 -150 -290 0
-292 291 0
-292 190 0
292 -291 -190 0
293 -289 0
293 -292 0
-293 289 292 0
-295 150 0
-295 294 0
295 -150 -294 0
-296 295 0
-296 200 0
296 -295 -200 0
-298 150 0
-298 297 0
298 -150 -297 0
-299 298 0
-299 209 0
299 -298 -209 0
300 -296 0
300 -299 0
-300 296 299 0
301 -293 0
301 -300 0
-301 293 300 0
-303 150 0
-303 302 0
303 -150 -302 0
-304 303 0
-304 219 0
304 -303 -219 0
-306 150 0
-306 305 0
306 -150 -305 0
-307 306 0
-307 224 0
307 -306 -224 0
308 -304 0
308 -307 0
-308 304 307 0
-310 150 0
-310 309 0
310 -150 -309 0
-311 310 0
-311 229 0
311 -310 -229 0
-313 150 0
-313 312 0
313 -150 -312 0
-314 313 0
-314 234 0
314 -313 -234 0
315 -311 0
315 -314 0
-315 311 314 0
316 -308 0
316 -315 0
-316 308 315 0
317 -301 0
317 -316 0
-317 301 316 0
-319 150 0
-319 318 0
319 -150 -318 0
-320 319 0
-320 244 0
320 -319 -244 0
-322 150 0
-322 321 0
322 -150 -321 0
-323 322 0
-323 249 0
323 -322 -249 0
324 -320 0
324 -323 0
-324 320 323 0
-326 150 0
-326 325 0
326 -150 -325 0
-327 326 0
-327 254 0
327 -326 -254 0
-329 150 0
-329 328 0
329 -150 -328 0
-330 329 0
-330 259 0
330 -329 -259 0
331 -327 0
331 -330 0
-331 327 330 0
332 -324 0
332 -331 0
-332 324 331 0
-335 333 0
-335 334 0
335 -333 -334 0
-337 150 0
-337 336 0
337 -150 -336 0
-338 337 0
-338 272 0
338 -337 -272 0
339 -335 0
339 -338 0
-339 335 338 0
-341 150 0
-341 340 0
341 -150 -340 0
-342 341 0
-342 283 0
342 -341 -283 0
-344 150 0
-344 343 0
344 -150 -343 0
-345 344 0
-345 277 0
345 -344 -277 0
346 -342 0
346 -345 0
-346 342 345 0
347 -339 0
347 -346 0
-347 339 346 0
348 -332 0
348 -347 0
-348 332 347 0
349 -317 0
349 -348 0
-349 317 348 0
-351 2 0
-351 350 0
351 -2 -350 0
-352 351 0
-352 180 0
352 -351 -180 0
-354 2 0
-354 353 0
354 -2 -353 0
-355 354 0
-355 190 0
355 -354 -190 0
356 -352 0
356 -355 0
-356 352 355 0
-358 2 0
-358 357 0
358 -2 -357 0
-359 358 0
-359 200 0
359 -358 -200 0
-361 2 0
-361 360 0
361 -2 -360 0
-362 361 0
-362 209 0
362 -361 -209 0
363 -359 362 0
363 359 -362 0
-363 -359 -362 0
-363 359 362 0
364 -356 0
364 -363 0
-364 356 363 0
-366 2 0
-366 365 0
366 -2 -365 0
-367 366 0
-367 219 0
367 -366 -219 0
-369 2 0
-369 368 0
369 -2 -368 0
-370 369 0
-370 224 0
370 -369 -224 0
371 -367 0
371 -370 0
-371 367 370 0
-373 2 0
-373 372 0
373 -2 -372 0
-374 373 0
-374 229 0
374 -373 -229 0
-376 2 0
-376 375 0
376 -2 -375 0
-377 376 0
-377 234 0
377 -376 -234 0
378 -374 0
378 -377 0
-378 374 377 0
379 -371 0
379 -378 0
-379 371 378 0
380 -364 0
380 -379 0
-380 364 379 0
-382 2 0
-382 381 0
382 -2 -381 0
-383 382 0
-383 244 0
383 -382 -244 0
-385 2 0
-385 384 0
385 -2 -384 0
-386 385 0
-386 249 0
386 -385 -249 0
387 -383 0
387 -386 0
-387 383 386 0
-389 2 0
-389 388 0
389 -2 -388 0
-390 389 0
-390 254 0
390 -389 -254 0
-392 391 0
-392 259 0
392 -391 -259 0
393 -390 0
393 -392 0
-393 390 392 0
394 -387 0
394 -393 0
-394 387 393 0
-396 2 0
-396 395 0
396 -2 -395 0
-397 396 0
-397 334 0
397 -396 -334 0
-399 2 0
-399 398 0
399 -2 -398 0
-400 399 0
-400 272 0
400 -399 -272 0
401 -397 0
401 -400 0
-401 397 400 0
-404 2 0
-404 403 0
404 -2 -403 0
-405 404 0
-405 277 0
405 -404 -277 0
406 -402 0
406 -405 0
-406 402 405 0
407 -401 0
407 -406 0
-407 401 406 0
408 -394 0
408 -407 0
-408 394 407 0
409 -380 0
409 -408 0
-409 380 408 0
410 -349 0
410 -409 0
-410 349 409 0
-411 1 0
-411 287 0
411 -1 -287 0
-412 411 0
-412 40 0
412 -411 -40 0
-413 1 0
-413 290 0
413 -1 -290 0
-414 413 0
-414 50 0
414 -413 -50 0
415 -412 0
415 -414 0
-415 412 414 0
-416 1 0
-416 294 0
416 -1 -294 0
-417 416 0
-417 60 0
417 -416 -60 0
-418 1 0
-418 297 0
418 -1 -297 0
-419 418 0
-419 70 0
419 -418 -70 0
420 -417 0
420 -419 0
-420 417 419 0
421 -415 0
421 -420 0
-421 415 420 0
-422 1 0
-422 302 0
422 -1 -302 0
-423 422 0
-423 80 0
423 -422 -80 0
-424 1 0
-424 305 0
424 -1 -305 0
-425 424 0
-425 85 0
425 -424 -85 0
426 -423 0
426 -425 0
-426 423 425 0
-427 1 0
-427 309 0
427 -1 -309 0
-428 427 0
-428 90 0
428 -427 -90 0
-429 1 0
-429 312 0
429 -1 -312 0
-430 429 0
-430 95 0
430 -429 -95 0
431 -428 0
431 -430 0
-431 428 430 0
432 -426 0
432 -431 0
-432 426 431 0
433 -421 0
433 -432 0
-433 421 432 0
-434 1 0
-434 318 0
434 -1 -318 0
-435 434 0
-435 105 0
435 -434 -105 0
-436 1 0
-436 321 0
436 -1 -321 0
-437 436 0
-437 110 0
437 -436 -110 0
438 -435 0
438 -437 0
-438 435 437 0
-439 1 0
-439 325 0
439 -1 -325 0
-440 439 0
-440 115 0
440 -439 -115 0
-441 1 0
-441 328 0
441 -1 -328 0
-442 441 0
-442 120 0
442 -441 -120 0
443 -440 0
443 -442 0
-443 440 442 0
444 -438 0
444 -443 0
-444 438 443 0
-446 1 0
-446 445 0
446 -1 -445 0
-447 446 0
-447 130 0
447 -446 -130 0
-448 1 0
-448 336 0
448 -1 -336 0
-449 448 0
-449 135 0
449 -448 -135 0
450 -447 0
450 -449 0
-450 447 449 0
-451 1 0
-451 340 0
451 -1 -340 0
-452 451 0
-452 140 0
452 -451 -140 0
-453 1 0
-453 343 0
453 -1 -343 0
-454 453 0
-454 145 0
454 -453 -145 0
455 -452 0
455 -454 0
-455 452 454 0
456 -450 0
456 -455 0
-456 450 455 0
457 -444 0
457 -456 0
-457 444 456 0
458 -433 0
458 -457 0
-458 433 457 0
-459 351 0
-459 40 0
459 -351 -40 0
-460 354 0
-460 50 0
460 -354 -50 0
461 -459 0
461 -460 0
-461 459 460 0
-462 358 0
-462 60 0
462 -358 -60 0
-463 361 0
-463 70 0
463 -361 -70 0
464 -462 0
464 -463 0
-464 462 463 0
465 -461 0
465 -464 0
-465 461 464 0
-466 366 0
-466 80 0
466 -366 -80 0
-467 369 0
-467 85 0
467 -369 -85 0
468 -466 0
468 -467 0
-468 466 467 0
-469 373 0
-469 90 0
469 -373 -90 0
-470 376 0
-470 95 0
470 -376 -95 0
471 -469 0
471 -470 0
-471 469 470 0
472 -468 0
472 -471 0
-472 468 471 0
473 -465 0
473 -472 0
-473 465 472 0
-474 382 0
-474 105 0
474 -382 -105 0
-475 385 0
-475 110 0
475 -385 -110 0
476 -474 0
476 -475 0
-476 474 475 0
-477 389 0
-477 115 0
477 -389 -115 0
-479 2 0
-479 478 0
479 -2 -478 0
-480 479 0
-480 120 0
480 -479 -120 0
481 -477 0
481 -480 0
-481 477 480 0
482 -476 0
482 -481 0
-482 476 481 0
-483 396 0
-483 130 0
483 -396 -130 0
-484 399 0
-484 135 0
484 -399 -135 0
485 -483 0
485 -484 0
-485 483 484 0
-487 2 0
-487 486 0
487 -2 -486 0
-488 487 0
-488 140 0
488 -487 -140 0
-489 404 0
-489 145 0
489 -404 -145 0
490 -488 0
490 -489 0
-490 488 489 0
491 -485 0
491 -490 0
-491 485 490 0
492 -482 0
492 -491 0
-492 482 491 0
493 -473 0
493 -492 0
-493 473 492 0
494 -458 0
494 -493 0
-494 458 493 0
495 -410 -494 0
495 410 494 0
-495 -410 494 0
-495 410 -494 0
496 -286 0
496 -495 0
-496 286 495 0
496 0
